(set-logic QF_FPABV)
(declare-fun b80 () (_ FP 8 24))
(declare-fun b26 () (_ FP 8 24))
(declare-fun b17 () (_ FP 8 24))
(declare-fun b56 () (_ FP 8 24))
(declare-fun b59 () (_ FP 8 24))
(declare-fun b62 () (_ FP 8 24))
(declare-fun b116 () (_ FP 8 24))
(declare-fun b104 () (_ FP 8 24))
(declare-fun b89 () (_ FP 8 24))
(declare-fun b113 () (_ FP 8 24))
(declare-fun b101 () (_ FP 8 24))
(declare-fun b86 () (_ FP 8 24))
(declare-fun b128 () (_ FP 8 24))
(declare-fun b11 () (_ FP 8 24))
(declare-fun b14 () (_ FP 8 24))
(declare-fun b32 () (_ FP 8 24))
(declare-fun b95 () (_ FP 8 24))
(declare-fun b92 () (_ FP 8 24))
(declare-fun b119 () (_ FP 8 24))
(declare-fun b74 () (_ FP 8 24))
(declare-fun b50 () (_ FP 8 24))
(declare-fun b41 () (_ FP 8 24))
(declare-fun b122 () (_ FP 8 24))
(declare-fun b107 () (_ FP 8 24))
(declare-fun b83 () (_ FP 8 24))
(declare-fun b110 () (_ FP 8 24))
(declare-fun b10 () (_ FP 8 24))
(declare-fun b53 () (_ FP 8 24))
(declare-fun b65 () (_ FP 8 24))
(declare-fun b38 () (_ FP 8 24))
(declare-fun b44 () (_ FP 8 24))
(declare-fun b20 () (_ FP 8 24))
(declare-fun b131 () (_ FP 8 24))
(declare-fun b35 () (_ FP 8 24))
(declare-fun b77 () (_ FP 8 24))
(declare-fun b29 () (_ FP 8 24))
(declare-fun b47 () (_ FP 8 24))
(declare-fun b23 () (_ FP 8 24))
(declare-fun b125 () (_ FP 8 24))
(declare-fun b68 () (_ FP 8 24))
(declare-fun b98 () (_ FP 8 24))
(declare-fun b71 () (_ FP 8 24))
(define-fun .3 () RoundingMode roundNearestTiesToEven)
(define-fun .9 () (_ FP 8 24) b11)
(define-fun .10 () (_ FP 8 24) b10)
(define-fun .11 () Bool (< .9 .10))
(define-fun .12 () (_ FP 8 24) (/ .3 .10 .9))
(define-fun .13 () (_ FP 8 24) b14)
(define-fun .14 () (_ FP 8 24) (/ .3 .12 .13))
(define-fun .15 () (_ FP 8 24) b17)
(define-fun .16 () (_ FP 8 24) (/ .3 .14 .15))
(define-fun .17 () (_ FP 8 24) b20)
(define-fun .18 () (_ FP 8 24) (/ .3 .16 .17))
(define-fun .19 () (_ FP 8 24) b23)
(define-fun .20 () (_ FP 8 24) (/ .3 .18 .19))
(define-fun .21 () (_ FP 8 24) b26)
(define-fun .22 () (_ FP 8 24) (/ .3 .20 .21))
(define-fun .23 () (_ FP 8 24) b29)
(define-fun .24 () (_ FP 8 24) (/ .3 .22 .23))
(define-fun .25 () (_ FP 8 24) b32)
(define-fun .26 () (_ FP 8 24) (/ .3 .24 .25))
(define-fun .27 () (_ FP 8 24) b35)
(define-fun .28 () (_ FP 8 24) (/ .3 .26 .27))
(define-fun .29 () (_ FP 8 24) b38)
(define-fun .30 () (_ FP 8 24) (/ .3 .28 .29))
(define-fun .31 () (_ FP 8 24) b41)
(define-fun .32 () (_ FP 8 24) (/ .3 .30 .31))
(define-fun .33 () (_ FP 8 24) b44)
(define-fun .34 () (_ FP 8 24) (/ .3 .32 .33))
(define-fun .35 () (_ FP 8 24) b47)
(define-fun .36 () (_ FP 8 24) (/ .3 .34 .35))
(define-fun .37 () (_ FP 8 24) b50)
(define-fun .38 () (_ FP 8 24) (/ .3 .36 .37))
(define-fun .39 () (_ FP 8 24) b53)
(define-fun .40 () (_ FP 8 24) (/ .3 .38 .39))
(define-fun .41 () (_ FP 8 24) b56)
(define-fun .42 () (_ FP 8 24) (/ .3 .40 .41))
(define-fun .43 () (_ FP 8 24) b59)
(define-fun .44 () (_ FP 8 24) (/ .3 .42 .43))
(define-fun .45 () (_ FP 8 24) b62)
(define-fun .46 () (_ FP 8 24) (/ .3 .44 .45))
(define-fun .47 () (_ FP 8 24) b65)
(define-fun .48 () (_ FP 8 24) (/ .3 .46 .47))
(define-fun .49 () (_ FP 8 24) b68)
(define-fun .50 () (_ FP 8 24) (/ .3 .48 .49))
(define-fun .51 () (_ FP 8 24) b71)
(define-fun .52 () (_ FP 8 24) (/ .3 .50 .51))
(define-fun .53 () (_ FP 8 24) b74)
(define-fun .54 () (_ FP 8 24) (/ .3 .52 .53))
(define-fun .55 () (_ FP 8 24) b77)
(define-fun .56 () (_ FP 8 24) (/ .3 .54 .55))
(define-fun .57 () (_ FP 8 24) b80)
(define-fun .58 () (_ FP 8 24) (/ .3 .56 .57))
(define-fun .59 () (_ FP 8 24) b83)
(define-fun .60 () (_ FP 8 24) (/ .3 .58 .59))
(define-fun .61 () (_ FP 8 24) b86)
(define-fun .62 () (_ FP 8 24) (/ .3 .60 .61))
(define-fun .63 () (_ FP 8 24) b89)
(define-fun .64 () (_ FP 8 24) (/ .3 .62 .63))
(define-fun .65 () (_ FP 8 24) b92)
(define-fun .66 () (_ FP 8 24) (/ .3 .64 .65))
(define-fun .67 () (_ FP 8 24) b95)
(define-fun .68 () (_ FP 8 24) (/ .3 .66 .67))
(define-fun .69 () (_ FP 8 24) b98)
(define-fun .70 () (_ FP 8 24) (/ .3 .68 .69))
(define-fun .71 () (_ FP 8 24) b101)
(define-fun .72 () (_ FP 8 24) (/ .3 .70 .71))
(define-fun .73 () (_ FP 8 24) b104)
(define-fun .74 () (_ FP 8 24) (/ .3 .72 .73))
(define-fun .75 () (_ FP 8 24) b107)
(define-fun .76 () (_ FP 8 24) (/ .3 .74 .75))
(define-fun .77 () (_ FP 8 24) b110)
(define-fun .78 () (_ FP 8 24) (/ .3 .76 .77))
(define-fun .79 () (_ FP 8 24) b113)
(define-fun .80 () (_ FP 8 24) (/ .3 .78 .79))
(define-fun .81 () (_ FP 8 24) b116)
(define-fun .82 () (_ FP 8 24) (/ .3 .80 .81))
(define-fun .83 () (_ FP 8 24) b119)
(define-fun .84 () (_ FP 8 24) (/ .3 .82 .83))
(define-fun .85 () (_ FP 8 24) b122)
(define-fun .86 () (_ FP 8 24) (/ .3 .84 .85))
(define-fun .87 () (_ FP 8 24) b125)
(define-fun .88 () (_ FP 8 24) (/ .3 .86 .87))
(define-fun .89 () (_ FP 8 24) b128)
(define-fun .90 () (_ FP 8 24) (/ .3 .88 .89))
(define-fun .91 () (_ FP 8 24) b131)
(define-fun .92 () Bool (< .90 .91))
(define-fun .93 () Bool (and .11 .92))
(define-fun .94 () Bool (<= .91 .9))
(define-fun .95 () Bool (and .93 .94))
(define-fun .96 () Bool (< .13 .12))
(define-fun .97 () Bool (and .95 .96))
(define-fun .98 () Bool (<= .91 .13))
(define-fun .99 () Bool (and .97 .98))
(define-fun .100 () Bool (< .15 .14))
(define-fun .101 () Bool (and .99 .100))
(define-fun .102 () Bool (<= .91 .15))
(define-fun .103 () Bool (and .101 .102))
(define-fun .104 () Bool (< .17 .16))
(define-fun .105 () Bool (and .103 .104))
(define-fun .106 () Bool (<= .91 .17))
(define-fun .107 () Bool (and .105 .106))
(define-fun .108 () Bool (< .19 .18))
(define-fun .109 () Bool (and .107 .108))
(define-fun .110 () Bool (<= .91 .19))
(define-fun .111 () Bool (and .109 .110))
(define-fun .112 () Bool (< .21 .20))
(define-fun .113 () Bool (and .111 .112))
(define-fun .114 () Bool (<= .91 .21))
(define-fun .115 () Bool (and .113 .114))
(define-fun .116 () Bool (< .23 .22))
(define-fun .117 () Bool (and .115 .116))
(define-fun .118 () Bool (<= .91 .23))
(define-fun .119 () Bool (and .117 .118))
(define-fun .120 () Bool (< .25 .24))
(define-fun .121 () Bool (and .119 .120))
(define-fun .122 () Bool (<= .91 .25))
(define-fun .123 () Bool (and .121 .122))
(define-fun .124 () Bool (< .27 .26))
(define-fun .125 () Bool (and .123 .124))
(define-fun .126 () Bool (<= .91 .27))
(define-fun .127 () Bool (and .125 .126))
(define-fun .128 () Bool (< .29 .28))
(define-fun .129 () Bool (and .127 .128))
(define-fun .130 () Bool (<= .91 .29))
(define-fun .131 () Bool (and .129 .130))
(define-fun .132 () Bool (< .31 .30))
(define-fun .133 () Bool (and .131 .132))
(define-fun .134 () Bool (<= .91 .31))
(define-fun .135 () Bool (and .133 .134))
(define-fun .136 () Bool (< .33 .32))
(define-fun .137 () Bool (and .135 .136))
(define-fun .138 () Bool (<= .91 .33))
(define-fun .139 () Bool (and .137 .138))
(define-fun .140 () Bool (< .35 .34))
(define-fun .141 () Bool (and .139 .140))
(define-fun .142 () Bool (<= .91 .35))
(define-fun .143 () Bool (and .141 .142))
(define-fun .144 () Bool (< .37 .36))
(define-fun .145 () Bool (and .143 .144))
(define-fun .146 () Bool (<= .91 .37))
(define-fun .147 () Bool (and .145 .146))
(define-fun .148 () Bool (< .39 .38))
(define-fun .149 () Bool (and .147 .148))
(define-fun .150 () Bool (<= .91 .39))
(define-fun .151 () Bool (and .149 .150))
(define-fun .152 () Bool (< .41 .40))
(define-fun .153 () Bool (and .151 .152))
(define-fun .154 () Bool (<= .91 .41))
(define-fun .155 () Bool (and .153 .154))
(define-fun .156 () Bool (< .43 .42))
(define-fun .157 () Bool (and .155 .156))
(define-fun .158 () Bool (<= .91 .43))
(define-fun .159 () Bool (and .157 .158))
(define-fun .160 () Bool (< .45 .44))
(define-fun .161 () Bool (and .159 .160))
(define-fun .162 () Bool (<= .91 .45))
(define-fun .163 () Bool (and .161 .162))
(define-fun .164 () Bool (< .47 .46))
(define-fun .165 () Bool (and .163 .164))
(define-fun .166 () Bool (<= .91 .47))
(define-fun .167 () Bool (and .165 .166))
(define-fun .168 () Bool (< .49 .48))
(define-fun .169 () Bool (and .167 .168))
(define-fun .170 () Bool (<= .91 .49))
(define-fun .171 () Bool (and .169 .170))
(define-fun .172 () Bool (< .51 .50))
(define-fun .173 () Bool (and .171 .172))
(define-fun .174 () Bool (<= .91 .51))
(define-fun .175 () Bool (and .173 .174))
(define-fun .176 () Bool (< .53 .52))
(define-fun .177 () Bool (and .175 .176))
(define-fun .178 () Bool (<= .91 .53))
(define-fun .179 () Bool (and .177 .178))
(define-fun .180 () Bool (< .55 .54))
(define-fun .181 () Bool (and .179 .180))
(define-fun .182 () Bool (<= .91 .55))
(define-fun .183 () Bool (and .181 .182))
(define-fun .184 () Bool (< .57 .56))
(define-fun .185 () Bool (and .183 .184))
(define-fun .186 () Bool (<= .91 .57))
(define-fun .187 () Bool (and .185 .186))
(define-fun .188 () Bool (< .59 .58))
(define-fun .189 () Bool (and .187 .188))
(define-fun .190 () Bool (<= .91 .59))
(define-fun .191 () Bool (and .189 .190))
(define-fun .192 () Bool (< .61 .60))
(define-fun .193 () Bool (and .191 .192))
(define-fun .194 () Bool (<= .91 .61))
(define-fun .195 () Bool (and .193 .194))
(define-fun .196 () Bool (< .63 .62))
(define-fun .197 () Bool (and .195 .196))
(define-fun .198 () Bool (<= .91 .63))
(define-fun .199 () Bool (and .197 .198))
(define-fun .200 () Bool (< .65 .64))
(define-fun .201 () Bool (and .199 .200))
(define-fun .202 () Bool (<= .91 .65))
(define-fun .203 () Bool (and .201 .202))
(define-fun .204 () Bool (< .67 .66))
(define-fun .205 () Bool (and .203 .204))
(define-fun .206 () Bool (<= .91 .67))
(define-fun .207 () Bool (and .205 .206))
(define-fun .208 () Bool (< .69 .68))
(define-fun .209 () Bool (and .207 .208))
(define-fun .210 () Bool (<= .91 .69))
(define-fun .211 () Bool (and .209 .210))
(define-fun .212 () Bool (< .71 .70))
(define-fun .213 () Bool (and .211 .212))
(define-fun .214 () Bool (<= .91 .71))
(define-fun .215 () Bool (and .213 .214))
(define-fun .216 () Bool (< .73 .72))
(define-fun .217 () Bool (and .215 .216))
(define-fun .218 () Bool (<= .91 .73))
(define-fun .219 () Bool (and .217 .218))
(define-fun .220 () Bool (< .75 .74))
(define-fun .221 () Bool (and .219 .220))
(define-fun .222 () Bool (<= .91 .75))
(define-fun .223 () Bool (and .221 .222))
(define-fun .224 () Bool (< .77 .76))
(define-fun .225 () Bool (and .223 .224))
(define-fun .226 () Bool (<= .91 .77))
(define-fun .227 () Bool (and .225 .226))
(define-fun .228 () Bool (< .79 .78))
(define-fun .229 () Bool (and .227 .228))
(define-fun .230 () Bool (<= .91 .79))
(define-fun .231 () Bool (and .229 .230))
(define-fun .232 () Bool (< .81 .80))
(define-fun .233 () Bool (and .231 .232))
(define-fun .234 () Bool (<= .91 .81))
(define-fun .235 () Bool (and .233 .234))
(define-fun .236 () Bool (< .83 .82))
(define-fun .237 () Bool (and .235 .236))
(define-fun .238 () Bool (<= .91 .83))
(define-fun .239 () Bool (and .237 .238))
(define-fun .240 () Bool (< .85 .84))
(define-fun .241 () Bool (and .239 .240))
(define-fun .242 () Bool (<= .91 .85))
(define-fun .243 () Bool (and .241 .242))
(define-fun .244 () Bool (< .87 .86))
(define-fun .245 () Bool (and .243 .244))
(define-fun .246 () Bool (<= .91 .87))
(define-fun .247 () Bool (and .245 .246))
(define-fun .248 () Bool (< .89 .88))
(define-fun .249 () Bool (and .247 .248))
(define-fun .250 () Bool (<= .91 .89))
(define-fun .251 () Bool (and .249 .250))
(assert .251)
(check-sat)
